15 44 94
1 5 5
1 6 2
1 9 1
1 10 4
1 11 3
1 14 2
2 8 4
2 15 4
3 5 2
3 6 3
3 7 2
3 8 1
3 15 4
4 5 5
4 6 5
4 7 2
4 9 4
4 12 5
4 13 2
4 15 1
5 6 2
5 7 3
5 11 4
5 12 2
5 13 5
5 14 1
5 15 1
6 7 4
6 11 2
6 12 1
6 15 2
7 8 2
7 11 5
8 9 1
8 10 5
8 11 5
8 13 2
9 10 2
9 12 4
9 14 4
10 11 4
11 12 2
11 14 3
12 14 5
